letting maxWeight=94
letting values=[25, 16, 43, 38, 25, 40, 46, 31, 31, 8, 69, 17, 39, 35, 64, 42, 37, 4, 12, 16, 51, 55, 34, 44, 51, 40, 45, 29, 52, 60, 2, 67, 41, 11, 42, 14, 11, 46, 58, 57, 19, 20, 63, 38, 48, 9, 28, 3, 7, 2, 20, 35, 9, 6, 15, 51, 49, 41, 34, 14, 43, 32, 19, 14, 59, 67, 62, 6, 68, 12, 43, 22, 7, 45, 56, 67]
letting weights=[21, 13, 21, 7, 11, 23, 2, 30, 6, 34, 8, 35, 34, 31, 24, 32, 19, 14, 2, 8, 5, 18, 19, 26, 24, 33, 20, 11, 25, 13, 6, 6, 24, 13, 25, 23, 18, 9, 17, 32, 25, 21, 11, 35, 4, 32, 7, 35, 35, 4, 11, 13, 21, 9, 27, 34, 27, 22, 15, 6, 33, 25, 1, 29, 33, 30, 27, 27, 22, 10, 34, 8, 1, 16, 3, 8]
